<number of tasks>
50

<cycle time>
1000

<order strength>
0.596


<task times>
1 537
2 236
3 248
4 568
5 90
6 128
7 31
8 476
9 34
10 573
11 58
12 192
13 272
14 467
15 152
16 184
17 234
18 524
19 280
20 246
21 230
22 74
23 204
24 96
25 265
26 483
27 317
28 523
29 534
30 422
31 46
32 577
33 242
34 24
35 61
36 153
37 191
38 115
39 171
40 577
41 58
42 244
43 85
44 360
45 59
46 25
47 125
48 149
49 141
50 292

<precedence relations>
1,12
2,12
3,12
4,12
5,32
6,9
6,13
7,9
7,11
7,23
8,9
8,10
8,13
8,21
8,22
9,20
10,20
11,20
12,14
12,15
12,16
12,17
12,18
12,19
13,32
13,33
13,34
14,20
15,20
15,23
15,24
16,20
16,30
16,31
17,43
18,20
18,22
19,21
19,24
20,25
20,26
20,27
20,28
20,29
20,42
21,32
22,32
23,30
23,31
23,33
24,30
25,44
26,34
27,33
27,44
28,34
29,49
30,32
31,32
31,34
32,35
32,36
32,37
32,38
32,39
32,40
32,41
34,43
34,44
35,43
36,42
36,46
37,44
38,42
39,49
40,42
41,44
42,47
42,49
43,45
44,45
45,46
45,47
46,49
46,50
47,48

<end>
